p cnf 127 430
-1 2 -3 0
1 -2 -3 0
-1 -2 3 0
1 2 3 0
-3 -4 -5 0
3 4 -5 0
-3 4 5 0
3 -4 5 0
-8 6 0
-8 -7 0
-6 7 8 0
-11 -9 0
-11 10 0
9 -10 11 0
8 11 -12 0
-8 -11 -12 0
8 -11 12 0
-8 11 12 0
-14 12 0
-14 13 0
-12 -13 14 0
15 -5 0
15 14 0
5 -14 -15 0
-16 -2 0
-16 -5 0
2 5 16 0
18 16 0
18 17 0
-16 -17 -18 0
4 10 -19 0
-4 -10 -19 0
4 -10 19 0
-4 10 19 0
20 19 0
20 18 0
-19 -18 -20 0
18 20 -21 0
-18 -20 -21 0
18 -20 21 0
-18 20 21 0
-22 -9 0
-22 -2 0
9 2 22 0
22 13 -23 0
-22 -13 -23 0
22 -13 23 0
-22 13 23 0
24 -23 0
24 17 0
23 -17 -24 0
-25 -21 0
-25 24 0
21 -24 25 0
-26 -13 -27 0
26 13 -27 0
-26 13 27 0
26 -13 27 0
-25 27 -28 0
25 -27 -28 0
-25 -27 28 0
25 27 28 0
-31 19 0
-31 30 0
-19 -30 31 0
32 -29 0
32 -31 0
29 31 -32 0
33 -28 0
33 -32 0
28 32 -33 0
-5 30 -34 0
5 -30 -34 0
-5 -30 34 0
5 30 34 0
-35 22 0
-35 34 0
-22 -34 35 0
35 -7 -36 0
-35 7 -36 0
35 7 36 0
-35 -7 36 0
-37 -36 0
-37 -23 0
36 23 37 0
39 -38 0
39 -1 0
38 1 -39 0
40 12 0
40 19 0
-12 -19 -40 0
-41 -9 0
-41 -26 0
9 26 41 0
42 -11 0
42 -41 0
11 41 -42 0
-40 -42 -43 0
40 42 -43 0
-40 42 43 0
40 -42 43 0
39 -43 -44 0
-39 43 -44 0
39 43 44 0
-39 -43 44 0
37 -44 -45 0
-37 44 -45 0
37 44 45 0
-37 -44 45 0
33 45 -46 0
-33 -45 -46 0
33 -45 46 0
-33 45 46 0
48 7 0
48 -47 0
-7 47 -48 0
49 -38 0
49 -47 0
38 47 -49 0
50 -19 0
50 -49 0
19 49 -50 0
-48 -50 -51 0
48 50 -51 0
-48 50 51 0
48 -50 51 0
-52 -47 0
-52 31 0
47 -31 52 0
30 52 -53 0
-30 -52 -53 0
30 -52 53 0
-30 52 53 0
54 30 0
54 -6 0
-30 6 -54 0
55 -53 0
55 54 0
53 -54 -55 0
56 8 0
56 49 0
-8 -49 -56 0
-57 56 0
-57 -2 0
-56 2 57 0
-58 57 0
-58 -23 0
-57 23 58 0
60 14 0
60 -59 0
-14 59 -60 0
61 -58 0
61 60 0
58 -60 -61 0
-55 61 -62 0
55 -61 -62 0
-55 -61 62 0
55 61 62 0
-63 -51 0
-63 -62 0
51 62 63 0
64 -46 0
64 -63 0
46 63 -64 0
-65 15 0
-65 64 0
-15 -64 65 0
-66 -11 0
-66 39 0
11 -39 66 0
67 -39 0
67 -66 0
39 66 -67 0
-68 -49 0
-68 67 0
49 -67 68 0
-17 -10 -69 0
17 10 -69 0
-17 10 69 0
17 -10 69 0
70 19 0
70 8 0
-19 -8 -70 0
-71 -23 0
-71 70 0
23 -70 71 0
-69 -71 -72 0
69 71 -72 0
-69 71 72 0
69 -71 72 0
39 -72 -73 0
-39 72 -73 0
39 72 73 0
-39 -72 73 0
-74 68 0
-74 -73 0
-68 73 74 0
-76 19 0
-76 31 0
-19 -31 76 0
-75 -76 -77 0
75 76 -77 0
-75 76 77 0
75 -76 77 0
-78 6 0
-78 -19 0
-6 19 78 0
-79 23 0
-79 -78 0
-23 78 79 0
-77 -79 -80 0
77 79 -80 0
-77 79 80 0
77 -79 80 0
-81 1 0
-81 34 0
-1 -34 81 0
82 38 0
82 66 0
-38 -66 -82 0
-83 -81 0
-83 82 0
81 -82 83 0
-80 83 -84 0
80 -83 -84 0
-80 -83 84 0
80 83 84 0
85 34 0
85 -69 0
-34 69 -85 0
-86 -84 0
-86 85 0
84 -85 86 0
-74 86 -87 0
74 -86 -87 0
-74 -86 87 0
74 86 87 0
56 -6 -88 0
-56 6 -88 0
56 6 88 0
-56 -6 88 0
-89 39 0
-89 -88 0
-39 88 89 0
-30 -49 -90 0
30 49 -90 0
-30 49 90 0
30 -49 90 0
-4 90 -91 0
4 -90 -91 0
-4 -90 91 0
4 90 91 0
-92 -89 0
-92 -91 0
89 91 92 0
-93 69 0
-93 -8 0
-69 8 93 0
94 30 0
94 75 0
-30 -75 -94 0
9 75 -95 0
-9 -75 -95 0
9 -75 95 0
-9 75 95 0
-96 -94 0
-96 -95 0
94 95 96 0
93 96 -97 0
-93 -96 -97 0
93 -96 97 0
-93 96 97 0
98 -92 0
98 -97 0
92 97 -98 0
99 31 0
99 -69 0
-31 69 -99 0
5 -7 -100 0
-5 7 -100 0
5 7 100 0
-5 -7 100 0
101 99 0
101 100 0
-99 -100 -101 0
-57 -59 -102 0
57 59 -102 0
-57 59 102 0
57 -59 102 0
-103 -101 0
-103 -102 0
101 102 103 0
-104 52 0
-104 -41 0
-52 41 104 0
105 7 0
105 59 0
-7 -59 -105 0
-105 22 -106 0
105 -22 -106 0
-105 -22 106 0
105 22 106 0
107 106 0
107 -70 0
-106 70 -107 0
-104 -107 -108 0
104 107 -108 0
-104 107 108 0
104 -107 108 0
109 -103 0
109 108 0
103 -108 -109 0
59 -78 -110 0
-59 78 -110 0
59 78 110 0
-59 -78 110 0
111 109 0
111 110 0
-109 -110 -111 0
-26 3 -112 0
26 -3 -112 0
-26 -3 112 0
26 3 112 0
-113 -112 0
-113 7 0
112 -7 113 0
114 -111 0
114 -113 0
111 113 -114 0
-78 59 -115 0
78 -59 -115 0
-78 -59 115 0
78 59 115 0
116 114 0
116 115 0
-114 -115 -116 0
-117 -98 0
-117 116 0
98 -116 117 0
118 -35 0
118 13 0
35 -13 -118 0
-26 -72 -119 0
26 72 -119 0
-26 72 119 0
26 -72 119 0
-120 -118 0
-120 -119 0
118 119 120 0
-121 117 0
-121 -120 0
-117 120 121 0
-10 -17 -122 0
10 17 -122 0
-10 17 122 0
10 -17 122 0
123 122 0
123 -122 0
124 -23 0
124 123 0
23 -123 -124 0
-121 -124 -125 0
121 124 -125 0
-121 124 125 0
121 -124 125 0
87 125 -126 0
-87 -125 -126 0
87 -125 126 0
-87 125 126 0
-65 126 -127 0
65 -126 -127 0
-65 -126 127 0
65 126 127 0
-124 -29 20 -48 4 0
-17 -75 -114 -91 0
-45 -16 -50 47 0
-48 7 124 -111 0
-98 19 119 0
73 50 105 0
-30 113 -110 3 64 -48 0
-18 -87 0
-118 29 -30 -111 0
-96 -15 47 -21 0
86 -47 11 111 0
-56 107 0
-89 -5 -69 -101 61 47 0
-94 46 -12 0
11 53 -25 0
28 116 -88 0
82 90 28 112 69 0
48 -1 21 0
77 22 -125 73 -120 0
108 32 0
-20 64 0
-83 -35 81 87 66 0
64 119 88 -83 0
100 6 -40 -70 105 0
22 -89 -101 0
88 -55 0
112 119 39 76 -21 -44 0
-125 -15 0
-38 -68 0
-1 124 0
-95 52 0
-125 -87 10 -23 0
72 93 0
49 -52 -115 83 0
88 44 -21 -84 125 26 0
-70 90 -30 0
-116 -10 0
-13 124 -2 67 123 0
-8 74 -37 0
104 33 -2 126 106 125 0
53 -123 0
-84 -88 103 81 0
-27 103 -53 -107 0
106 -84 -10 0
-125 -78 60 -83 0
26 75 29 2 0
-92 74 -126 -36 43 0
-114 65 -54 4 119 0
-58 72 83 59 0
-14 66 20 0
-79 -14 113 9 0
20 66 97 -114 0
-118 44 -66 -53 -78 0
-47 88 107 109 0
-40 -9 100 36 -29 7 0
51 -84 15 0
127 0
